peakDumbCharging = 11100; 
Machine = anon_enum(16); 
machineSpeed = [3700,3700,3700,3700,3700,3700,3700,3700,3700,3700,3700,3700,3700,3700,3700,3700]; 
machineLoad = [3700,3700,3700,3700,3700,3700,3700,3700,3700,3700,3700,3700,3700,3700,3700,3700]; 
Car = anon_enum(8); 
demandCar = [5800,6520,11240,7280,12800,6040,6360,6360]; 
arrivalCar = [70,67,66,51,47,47,47,42]; 
departureCar = [73,70,72,55,53,50,50,45]; 
